artifacts/cosmic_witness_prediction_proof_robust.smt2
(set-logic QF_LRA)
(declare-const f0 Real)
(assert (>= f0 2.6982212975))
(assert (<= f0 2.7527310775))
(declare-const f1 Real)
(assert (>= f1 -0.027248096448369917))
(assert (<= f1 0.027261683551630063))
(declare-const f2 Real)
(assert (>= f2 2.69821111))
(assert (<= f2 2.75272089))
(declare-const f3 Real)
(assert (>= f3 2.69823411))
(assert (<= f3 2.75274389))
(declare-const f4 Real)
(assert (>= f4 -0.027267390000000405))
(assert (<= f4 0.027242389999999575))
(declare-const A Real)
(declare-const B Real)
(assert (or (and (> f3 2.9980379) (= A 0.0)) (and (<= f3 2.9980379)(= A 0.0))))
(assert (or (and (> f3 2.9980379) (= B 0.0)) (and (<= f3 2.9980379)(= B 0.0))))
(assert (or (not (= A 0.0)) (not (= B 0.0))))
(check-sat)